max:+ d0 ;

 /* server 0*/
f0s0u0 <= x0s0 + 312500.0 u0;
f1s0u0 <= x1s0 + 312500.0 u0;
f2s0u0 <= x2s0 + 312500.0 u0;
f3s0u0 <= x3s0 + 312500.0 u0;
f4s0u0 <= x4s0 + 312500.0 u0;
f5s0u0 <= x5s0 + 312500.0 u0;
f6s0u0 <= x6s0 + 312500.0 u0;
f7s0u0 <= x7s0 + 312500.0 u0;
f8s0u0 <= x8s0 + 312500.0 u0;
f9s0u0 <= x9s0 + 312500.0 u0;
f10s0u0 <= x10s0 + 312500.0 u0;
f11s0u0 <= x11s0 + 312500.0 u0;
f12s0u0 <= x12s0 + 312500.0 u0;
f13s0u0 <= x13s0 + 312500.0 u0;
f14s0u0 <= x14s0 + 312500.0 u0;
f15s0u0 <= x15s0 + 312500.0 u0;
0+ f0s0u0+ f1s0u0+ f2s0u0+ f3s0u0+ f4s0u0+ f5s0u0+ f6s0u0+ f7s0u0+ f8s0u0+ f9s0u0+ f10s0u0+ f11s0u0+ f12s0u0+ f13s0u0+ f14s0u0+ f15s0u0= a0u0;
b0t0 >= 10000000 t0 - 100.00000000000001;
b0t0 >= 0;
b0t0 = a0u0;
d0 = t0 - u0;
d0 >= 0;
0+ f0s0u0+ f2s0u0+ f4s0u0+ f6s0u0+ f8s0u0+ f10s0u0+ f12s0u0+ f14s0u0<= 0 + 10000000u0;
0+ f1s0u0+ f3s0u0+ f5s0u0+ f7s0u0+ f9s0u0+ f11s0u0+ f13s0u0+ f15s0u0<= 0 + 10000000u0;

 /* sigma variables*/
x0s0 = 43.31671375;
x1s0 = 43.31671375;
x2s0 = 45.2470558;
x3s0 = 45.2470558;
x4s0 = 44.91866244;
x5s0 = 44.91866244;
x6s0 = 45.2470558;
x7s0 = 45.2470558;
x8s0 = 43.31671375;
x9s0 = 43.31671375;
x10s0 = 45.2470558;
x11s0 = 45.2470558;
x12s0 = 44.91866244;
x13s0 = 44.91866244;
x14s0 = 45.2470558;
x15s0 = 45.2470558;
